% seed = 4022487

mint = 53;
% maxt = 231;

nActs = 42;
dur = [0,1,10,8,5,3,5,4,7,2,10,6,8,2,3,4,5,6,8,10,2,9,4,3,6,2,7,5,8,7,9,6,7,2,6,8,3,9,5,8,8,0];

nSkills = 4;
sreq = [| 0,0,0,0,
	| 0,0,5,4,
	| 0,0,2,2,
	| 0,0,4,5,
	| 0,0,4,3,
	| 6,0,2,0,
	| 0,0,3,2,
	| 0,3,0,4,
	| 0,2,0,7,
	| 0,2,0,4,
	| 4,0,0,4,
	| 5,6,0,0,
	| 3,6,0,0,
	| 0,4,6,0,
	| 2,0,0,4,
	| 3,0,0,7,
	| 0,1,5,0,
	| 0,4,5,0,
	| 0,3,0,4,
	| 0,4,3,0,
	| 6,0,0,3,
	| 0,0,6,3,
	| 0,3,0,5,
	| 4,0,0,5,
	| 0,4,0,2,
	| 0,2,6,0,
	| 0,0,2,4,
	| 0,4,7,0,
	| 4,0,4,0,
	| 4,5,0,0,
	| 0,4,5,0,
	| 2,0,6,0,
	| 0,6,0,2,
	| 0,6,4,0,
	| 3,0,0,5,
	| 0,7,4,0,
	| 0,6,0,5,
	| 1,0,3,0,
	| 2,5,0,0,
	| 4,0,4,0,
	| 0,4,2,0,
	| 0,0,0,0, |];

nResources = 25;
mastery = [| false,true,true,false,
	| true,false,true,true,
	| false,true,false,true,
	| true,false,true,false,
	| false,true,true,false,
	| true,false,true,false,
	| false,false,true,false,
	| true,true,true,false,
	| true,true,false,false,
	| false,true,false,false,
	| false,false,true,true,
	| true,true,true,false,
	| false,false,false,true,
	| true,false,true,false,
	| true,true,true,false,
	| true,false,false,true,
	| false,true,false,true,
	| false,true,true,false,
	| false,true,false,false,
	| true,true,false,false,
	| true,true,false,true,
	| true,false,false,true,
	| false,true,true,true,
	| false,true,false,true,
	| false,true,false,true, |];

nPrecs = 61;
pred = [1,1,1,2,2,3,4,4,5,5,5,6,6,6,7,7,7,8,8,9,9,10,11,11,11,12,12,13,13,14,15,16,17,18,19,19,20,20,21,22,23,24,25,25,26,27,28,29,30,31,32,33,34,35,35,36,37,38,39,40,41];
succ = [2,3,4,10,30,35,17,5,25,11,6,12,7,8,9,20,13,19,14,30,39,31,26,28,15,31,32,18,16,29,23,22,39,40,26,21,36,23,27,24,29,37,36,31,41,37,33,37,38,34,34,40,40,36,38,41,39,41,42,42,42];

nUnrels = 559;
unpred = [2,2,2,2,2,2,2,2,2,2,2,2,2,2,2,2,2,2,2,2,2,2,2,2,2,2,2,2,2,2,2,2,3,3,3,3,3,3,3,3,3,3,3,3,3,3,3,3,3,3,3,3,3,3,3,3,3,3,3,3,3,3,3,3,3,3,4,4,5,5,5,6,6,6,6,6,6,6,6,7,7,7,7,7,7,7,7,7,7,7,7,7,7,7,7,7,7,8,8,8,8,8,8,8,8,8,8,8,8,8,8,8,8,8,8,8,8,8,8,8,8,9,9,9,9,9,9,9,9,9,9,9,9,9,9,9,9,9,9,9,9,9,9,9,9,9,9,9,9,10,10,10,10,10,10,10,10,10,10,10,10,10,10,10,10,10,10,10,10,10,10,10,10,10,10,10,10,11,11,11,11,11,11,11,11,11,11,11,11,11,11,11,11,11,11,11,11,12,12,12,12,12,12,12,12,12,12,12,12,12,12,12,12,12,12,12,12,12,12,12,12,12,13,13,13,13,13,13,13,13,13,13,13,13,13,13,13,13,13,13,13,13,13,14,14,14,14,14,14,14,14,14,14,14,14,14,14,14,14,14,14,14,14,14,14,14,14,15,15,15,15,15,15,15,15,15,15,15,15,15,15,15,15,15,15,15,15,15,15,16,16,16,16,16,16,16,16,16,16,16,16,16,16,16,16,16,16,16,16,16,17,17,17,17,17,17,17,17,17,17,17,17,17,17,17,17,17,17,17,17,17,17,17,18,18,18,18,18,18,18,18,18,18,18,18,18,18,18,18,18,18,18,18,18,18,19,19,19,19,19,19,19,19,19,19,19,19,19,19,19,19,20,20,20,20,20,20,20,20,20,20,20,20,20,20,20,21,21,21,21,21,21,21,21,21,21,21,21,21,21,21,21,21,22,22,22,22,22,22,22,22,22,22,22,22,22,22,22,22,23,23,23,23,23,23,23,23,23,23,23,23,23,23,23,24,24,24,24,24,24,24,24,24,24,24,24,24,24,24,25,25,25,25,25,25,25,25,25,25,25,26,26,26,26,26,26,26,26,26,26,26,26,26,26,27,27,27,27,27,27,27,27,27,27,27,27,28,28,28,28,28,28,28,28,28,28,28,29,29,29,29,29,29,29,29,29,29,30,30,30,30,30,30,30,30,30,31,31,31,31,31,31,31,31,32,32,32,32,32,32,32,33,33,33,33,33,33,33,34,34,34,34,34,34,35,35,35,36,36,36,36,37,37,37,38,38,39,39,40];
unsucc = [3,4,5,6,7,8,9,11,12,13,14,15,16,17,18,19,20,21,22,23,24,25,26,27,28,29,32,33,35,36,37,39,4,5,6,7,8,9,10,11,12,13,14,15,16,17,18,19,20,21,22,23,24,25,26,27,28,29,30,31,32,33,34,37,39,40,10,35,10,17,35,10,11,15,17,25,28,33,35,8,10,11,12,14,15,17,19,21,25,26,27,28,31,32,33,34,35,9,10,11,12,13,15,16,17,18,20,22,23,24,25,28,30,31,32,33,34,35,36,38,40,10,11,12,13,14,15,16,17,18,19,20,21,22,23,24,25,26,27,28,29,31,32,33,34,35,36,37,40,11,12,13,14,15,16,17,18,19,20,21,22,23,24,25,26,27,28,29,30,32,33,35,36,37,38,39,41,12,13,14,16,17,18,19,20,21,22,24,25,27,30,31,32,34,35,36,38,13,14,15,16,17,18,19,20,21,22,23,24,25,26,27,28,29,30,33,35,36,37,38,39,41,14,15,17,19,20,21,23,25,26,27,28,29,30,31,32,33,34,35,36,38,41,15,16,17,18,19,20,21,22,23,24,25,26,27,28,30,31,32,33,34,35,36,38,40,41,16,17,18,19,20,21,22,24,25,26,27,28,30,31,32,33,34,35,36,38,40,41,17,18,19,20,21,23,25,26,27,28,29,30,31,32,33,34,35,36,38,40,41,18,19,20,21,22,23,24,25,26,27,28,29,30,31,32,33,34,35,36,37,38,40,41,19,20,21,22,23,24,25,26,27,28,29,30,31,32,33,34,35,36,37,38,39,41,20,22,23,24,25,28,29,30,31,32,33,34,35,36,38,40,21,22,24,25,26,27,28,30,31,32,33,34,35,38,40,22,23,24,25,26,28,29,30,31,32,33,34,35,36,38,40,41,23,25,26,27,28,29,30,31,32,33,34,35,36,38,40,41,24,25,26,27,28,30,31,32,33,34,35,36,38,40,41,25,26,27,28,29,30,31,32,33,34,35,36,38,40,41,26,27,28,29,30,32,33,35,37,38,39,27,28,29,30,31,32,33,34,35,36,37,38,39,40,28,29,30,31,32,33,34,35,36,38,40,41,29,30,31,32,34,35,36,37,38,39,41,30,31,32,33,34,35,36,38,40,41,31,32,33,34,35,36,37,39,40,32,33,35,36,37,38,39,41,33,35,36,37,38,39,41,34,35,36,37,38,39,41,35,36,37,38,39,41,37,39,40,37,38,39,40,38,40,41,39,40,40,41,41];

USEFUL_RES = [{},
	{1,2,3,4,5,6,7,8,11,12,13,14,15,16,17,18,21,22,23,24,25},
	{1,2,3,4,5,6,7,8,11,12,13,14,15,16,17,18,21,22,23,24,25},
	{1,2,3,4,5,6,7,8,11,12,13,14,15,16,17,18,21,22,23,24,25},
	{1,2,3,4,5,6,7,8,11,12,13,14,15,16,17,18,21,22,23,24,25},
	{1,2,4,5,6,7,8,9,11,12,14,15,16,18,20,21,22,23},
	{1,2,3,4,5,6,7,8,11,12,13,14,15,16,17,18,21,22,23,24,25},
	{1,2,3,5,8,9,10,11,12,13,15,16,17,18,19,20,21,22,23,24,25},
	{1,2,3,5,8,9,10,11,12,13,15,16,17,18,19,20,21,22,23,24,25},
	{1,2,3,5,8,9,10,11,12,13,15,16,17,18,19,20,21,22,23,24,25},
	{2,3,4,6,8,9,11,12,13,14,15,16,17,20,21,22,23,24,25},
	{1,2,3,4,5,6,8,9,10,12,14,15,16,17,18,19,20,21,22,23,24,25},
	{1,2,3,4,5,6,8,9,10,12,14,15,16,17,18,19,20,21,22,23,24,25},
	{1,2,3,4,5,6,7,8,9,10,11,12,14,15,17,18,19,20,21,23,24,25},
	{2,3,4,6,8,9,11,12,13,14,15,16,17,20,21,22,23,24,25},
	{2,3,4,6,8,9,11,12,13,14,15,16,17,20,21,22,23,24,25},
	{1,2,3,4,5,6,7,8,9,10,11,12,14,15,17,18,19,20,21,23,24,25},
	{1,2,3,4,5,6,7,8,9,10,11,12,14,15,17,18,19,20,21,23,24,25},
	{1,2,3,5,8,9,10,11,12,13,15,16,17,18,19,20,21,22,23,24,25},
	{1,2,3,4,5,6,7,8,9,10,11,12,14,15,17,18,19,20,21,23,24,25},
	{2,3,4,6,8,9,11,12,13,14,15,16,17,20,21,22,23,24,25},
	{1,2,3,4,5,6,7,8,11,12,13,14,15,16,17,18,21,22,23,24,25},
	{1,2,3,5,8,9,10,11,12,13,15,16,17,18,19,20,21,22,23,24,25},
	{2,3,4,6,8,9,11,12,13,14,15,16,17,20,21,22,23,24,25},
	{1,2,3,5,8,9,10,11,12,13,15,16,17,18,19,20,21,22,23,24,25},
	{1,2,3,4,5,6,7,8,9,10,11,12,14,15,17,18,19,20,21,23,24,25},
	{1,2,3,4,5,6,7,8,11,12,13,14,15,16,17,18,21,22,23,24,25},
	{1,2,3,4,5,6,7,8,9,10,11,12,14,15,17,18,19,20,21,23,24,25},
	{1,2,4,5,6,7,8,9,11,12,14,15,16,18,20,21,22,23},
	{1,2,3,4,5,6,8,9,10,12,14,15,16,17,18,19,20,21,22,23,24,25},
	{1,2,3,4,5,6,7,8,9,10,11,12,14,15,17,18,19,20,21,23,24,25},
	{1,2,4,5,6,7,8,9,11,12,14,15,16,18,20,21,22,23},
	{1,2,3,5,8,9,10,11,12,13,15,16,17,18,19,20,21,22,23,24,25},
	{1,2,3,4,5,6,7,8,9,10,11,12,14,15,17,18,19,20,21,23,24,25},
	{2,3,4,6,8,9,11,12,13,14,15,16,17,20,21,22,23,24,25},
	{1,2,3,4,5,6,7,8,9,10,11,12,14,15,17,18,19,20,21,23,24,25},
	{1,2,3,5,8,9,10,11,12,13,15,16,17,18,19,20,21,22,23,24,25},
	{1,2,4,5,6,7,8,9,11,12,14,15,16,18,20,21,22,23},
	{1,2,3,4,5,6,8,9,10,12,14,15,16,17,18,19,20,21,22,23,24,25},
	{1,2,4,5,6,7,8,9,11,12,14,15,16,18,20,21,22,23},
	{1,2,3,4,5,6,7,8,9,10,11,12,14,15,17,18,19,20,21,23,24,25},
	{}];

POTENTIAL_ACT = [{2,3,4,5,6,7,8,9,10,12,13,14,17,18,19,20,22,23,25,26,27,28,29,30,31,32,33,34,36,37,38,39,40,41},
	{2,3,4,5,6,7,8,9,10,11,12,13,14,15,16,17,18,19,20,21,22,23,24,25,26,27,28,29,30,31,32,33,34,35,36,37,38,39,40,41},
	{2,3,4,5,7,8,9,10,11,12,13,14,15,16,17,18,19,20,21,22,23,24,25,26,27,28,30,31,33,34,35,36,37,39,41},
	{2,3,4,5,6,7,11,12,13,14,15,16,17,18,20,21,22,24,26,27,28,29,30,31,32,34,35,36,38,39,40,41},
	{2,3,4,5,6,7,8,9,10,12,13,14,17,18,19,20,22,23,25,26,27,28,29,30,31,32,33,34,36,37,38,39,40,41},
	{2,3,4,5,6,7,11,12,13,14,15,16,17,18,20,21,22,24,26,27,28,29,30,31,32,34,35,36,38,39,40,41},
	{2,3,4,5,6,7,14,17,18,20,22,26,27,28,29,31,32,34,36,38,40,41},
	{2,3,4,5,6,7,8,9,10,11,12,13,14,15,16,17,18,19,20,21,22,23,24,25,26,27,28,29,30,31,32,33,34,35,36,37,38,39,40,41},
	{6,8,9,10,11,12,13,14,15,16,17,18,19,20,21,23,24,25,26,28,29,30,31,32,33,34,35,36,37,38,39,40,41},
	{8,9,10,12,13,14,17,18,19,20,23,25,26,28,30,31,33,34,36,37,39,41},
	{2,3,4,5,6,7,8,9,10,11,14,15,16,17,18,19,20,21,22,23,24,25,26,27,28,29,31,32,33,34,35,36,37,38,40,41},
	{2,3,4,5,6,7,8,9,10,11,12,13,14,15,16,17,18,19,20,21,22,23,24,25,26,27,28,29,30,31,32,33,34,35,36,37,38,39,40,41},
	{2,3,4,5,7,8,9,10,11,15,16,19,21,22,23,24,25,27,33,35,37},
	{2,3,4,5,6,7,11,12,13,14,15,16,17,18,20,21,22,24,26,27,28,29,30,31,32,34,35,36,38,39,40,41},
	{2,3,4,5,6,7,8,9,10,11,12,13,14,15,16,17,18,19,20,21,22,23,24,25,26,27,28,29,30,31,32,33,34,35,36,37,38,39,40,41},
	{2,3,4,5,6,7,8,9,10,11,12,13,15,16,19,21,22,23,24,25,27,29,30,32,33,35,37,38,39,40},
	{2,3,4,5,7,8,9,10,11,12,13,14,15,16,17,18,19,20,21,22,23,24,25,26,27,28,30,31,33,34,35,36,37,39,41},
	{2,3,4,5,6,7,8,9,10,12,13,14,17,18,19,20,22,23,25,26,27,28,29,30,31,32,33,34,36,37,38,39,40,41},
	{8,9,10,12,13,14,17,18,19,20,23,25,26,28,30,31,33,34,36,37,39,41},
	{6,8,9,10,11,12,13,14,15,16,17,18,19,20,21,23,24,25,26,28,29,30,31,32,33,34,35,36,37,38,39,40,41},
	{2,3,4,5,6,7,8,9,10,11,12,13,14,15,16,17,18,19,20,21,22,23,24,25,26,27,28,29,30,31,32,33,34,35,36,37,38,39,40,41},
	{2,3,4,5,6,7,8,9,10,11,12,13,15,16,19,21,22,23,24,25,27,29,30,32,33,35,37,38,39,40},
	{2,3,4,5,6,7,8,9,10,11,12,13,14,15,16,17,18,19,20,21,22,23,24,25,26,27,28,29,30,31,32,33,34,35,36,37,38,39,40,41},
	{2,3,4,5,7,8,9,10,11,12,13,14,15,16,17,18,19,20,21,22,23,24,25,26,27,28,30,31,33,34,35,36,37,39,41},
	{2,3,4,5,7,8,9,10,11,12,13,14,15,16,17,18,19,20,21,22,23,24,25,26,27,28,30,31,33,34,35,36,37,39,41}];
